4
5
0 484 331 578 162 
484 0 503 395 489 
331 503 0 340 172 
578 395 340 0 465 
162 489 172 465 0 
0 292 560 304 361 
292 0 503 581 487 
560 503 0 821 319 
304 581 821 0 545 
361 487 319 545 0 
0 118 161 352 667 
118 0 209 368 655 
161 209 0 193 514 
352 368 193 0 323 
667 655 514 323 0 
0 533 411 253 615 
533 0 595 781 845 
411 595 0 571 255 
253 781 571 0 701 
615 845 255 701 0 
